Traveling Salesman Problem/TSP_generados/Aleatorio1621103361_11.tsp
NAME: Aleatorio1621103361_11.tsp
COMMENT: Randomly generated scenario
TYPE: TSP
DIMENSION: 11
EDGE_WEIGHT_TYPE: ATT
NODE_COORD_SECTION
1 4.96 14.77
2 30.39 3.16
3 27.33 0.27
4 48.75 12.67
5 24.54 33.39
6 5.61 21.74
7 7.35 13.98
8 5.01 42.29
9 17.38 5.5
10 26.67 21.92
11 20.86 29.13
