Traveling Salesman Problem/TSP_generados/Aleatorio1621103361_11.opt.tour
NAME: Aleatorio1621103361_11.opt.tour
COMMENT: Optimal solution for Aleatorio1621103361_11 (139.627698512346)
TYPE: TOUR
DIMENSION: 11
TOUR_SECTION
1 7 9 3 2 4 10 11 5 8 6
-1
EOF
